(set-info :smt-lib-version 2.6)
(set-logic UF)
(set-info :source |Benchmarks from the paper: "Extending Sledgehammer with SMT Solvers" by Jasmin Blanchette, Sascha Bohme, and Lawrence C. Paulson, CADE 2011.  Translated to SMT2 by Andrew Reynolds and Morgan Deters.|)
(set-info :category "industrial")
(set-info :status unsat)
(declare-sort S1 0)
(declare-sort S2 0)
(declare-sort S3 0)
(declare-sort S4 0)
(declare-sort S5 0)
(declare-sort S6 0)
(declare-sort S7 0)
(declare-sort S8 0)
(declare-sort S9 0)
(declare-sort S10 0)
(declare-sort S11 0)
(declare-sort S12 0)
(declare-sort S13 0)
(declare-sort S14 0)
(declare-sort S15 0)
(declare-fun f1 () S1)
(declare-fun f2 () S1)
(declare-fun f3 (S3 S2) S1)
(declare-fun f4 () S3)
(declare-fun f5 (S5 S2) S2)
(declare-fun f6 (S6 S2) S5)
(declare-fun f7 () S6)
(declare-fun f8 (S7 S4) S2)
(declare-fun f9 (S8 S4) S7)
(declare-fun f10 () S8)
(declare-fun f11 () S4)
(declare-fun f12 (S9 S10) S1)
(declare-fun f13 (S11 S4) S9)
(declare-fun f14 (S12 S2) S11)
(declare-fun f15 () S12)
(declare-fun f16 (S13) S10)
(declare-fun f17 (S14) S13)
(declare-fun f18 () S14)
(declare-fun f19 () S1)
(declare-fun f20 (S15 S3) S2)
(declare-fun f21 () S15)
(declare-fun f22 (S3) S3)
(declare-fun f23 (S2 S3) S1)
(declare-fun f24 (S10 S9) S1)
(assert (not (= f1 f2)))
(assert (forall ((?v0 S2)) (= (= (f3 f4 ?v0) f1) (exists ((?v1 S4) (?v2 S2)) (and (= ?v0 (f5 (f6 f7 ?v2) (f8 (f9 f10 ?v1) f11))) (= (f12 (f13 (f14 f15 ?v2) ?v1) (f16 (f17 f18))) f1))))))
(assert (not (= f19 f1)))
(assert (forall ((?v0 S2) (?v1 S4)) (=> (= (f12 (f13 (f14 f15 ?v0) ?v1) (f16 (f17 f18))) f1) (=> (= (f20 f21 (f22 f4)) (f5 (f6 f7 ?v0) (f8 (f9 f10 ?v1) f11))) (= f19 f1)))))
(assert (let ((?v_0 (f22 f4))) (= (f23 (f20 f21 ?v_0) ?v_0) f1)))
(assert (forall ((?v0 S2) (?v1 S3)) (= (= (f23 ?v0 ?v1) f1) (= (f3 ?v1 ?v0) f1))))
(assert (forall ((?v0 S9) (?v1 S10)) (= (= (f12 ?v0 ?v1) f1) (= (f24 ?v1 ?v0) f1))))
(assert (forall ((?v0 S3)) (= (f22 ?v0) ?v0)))
(check-sat)
(exit)
